#load.dat
param:
N: x y:=
1	45	25
2	50	30
3	30	10
4	20	20
5	30	20
6	30	10
7	40	20
8	35	15
9	33	33
10	60	25
;
param w:1 2 3 4 5 6 7 8 9 10 :=
1 0 1 16 0 0 0 0 0 0 0
2 1 0 4 1 4 4 4 1 4 4
3 16 4 0 0 0 0 0 0 0 0
4 0 1 0 0 0 1 0 0 0 4
5 0 4 0 0 0 0 0 0 0 64
6 0 4 0 1 0 0 16 0 4 0
7 0 4 0 0 0 16 0 0 16 0
8 0 1 0 0 0 0 0 0 0 64
9 0 4 0 0 0 4 16 0 0 16
10 0 4 0 4 64 0 0 64 16 0
;